NAME : SCA8-5.10270809.tour
COMMENT : Cost = 0_10270809
COMMENT : Found by LKH [Keld Helsgaun] Tue Apr 25 23:11:22 2017
TYPE : TOUR
DIMENSION : 59
TOUR_SECTION
1
42
26
46
6
17
53
8
44
33
49
58
28
4
9
40
41
45
54
21
43
7
11
59
24
20
48
27
10
39
14
23
56
36
51
30
50
38
57
2
15
18
12
31
32
35
13
55
25
29
34
16
5
52
3
22
19
37
47
-1
EOF
